(declare-const idade Int) (declare-const peso Int)  (assert (and (not (>= idade  12)) (not (and ( >= peso 5)  ( <= peso 9))) (not (and ( > peso 9)  ( <= peso 16))) (not (and ( > peso 16)  ( <= peso 24))) (not (and ( > peso 24)  ( <= peso 30))) (not (> peso  30)) ))(check-sat) (get-model)
